(set-logic QF_S)
(declare-fun var0 () String)
(declare-fun var1 () String)
(declare-fun var2 () Int)
(declare-fun var3 () String)
(declare-fun var4 () String)
(declare-fun var5 () Bool)
(declare-fun var6 () Int)
(declare-fun var7 () Int)
(assert (< (str.to.int var0) (str.indexof "*oZ2" var1 var2)))
(assert (< (str.to.int var3) (str.len var4)))
(assert (not var5))
(assert (str.contains (str.at var3 13) (str.substr var1 var6 var7)))
(check-sat)